NAME: cuum610.tsp
TYPE: TSP
COMMENT: User-generated TSP file
DIMENSION: 610
EDGE_WEIGHT_TYPE: EUC_2D
NODE_COORD_SECTION
1 381.0 242.0
2 574.0 401.0
3 113.0 174.0
4 438.0 34.0
5 91.0 301.0
6 603.0 193.0
7 429.0 65.0
8 289.0 47.0
9 557.0 228.0
10 283.0 532.0
11 521.0 46.0
12 484.0 194.0
13 140.0 439.0
14 39.0 201.0
15 396.0 213.0
16 537.0 15.0
17 331.0 33.0
18 36.0 257.0
19 460.0 382.0
20 428.0 143.0
21 124.0 591.0
22 198.0 37.0
23 221.0 8.0
24 483.0 610.0
25 281.0 347.0
26 12.0 479.0
27 601.0 456.0
28 111.0 98.0
29 301.0 420.0
30 598.0 608.0
31 314.0 419.0
32 603.0 333.0
33 186.0 609.0
34 293.0 384.0
35 8.0 552.0
36 361.0 437.0
37 287.0 449.0
38 80.0 574.0
39 460.0 345.0
40 248.0 29.0
41 55.0 113.0
42 476.0 168.0
43 333.0 564.0
44 565.0 15.0
45 265.0 526.0
46 250.0 599.0
47 494.0 420.0
48 495.0 166.0
49 286.0 593.0
50 497.0 434.0
51 539.0 570.0
52 100.0 147.0
53 601.0 83.0
54 111.0 453.0
55 550.0 521.0
56 526.0 375.0
57 148.0 598.0
58 503.0 36.0
59 36.0 208.0
60 450.0 404.0
61 199.0 425.0
62 184.0 294.0
63 266.0 315.0
64 151.0 557.0
65 496.0 468.0
66 469.0 600.0
67 266.0 130.0
68 75.0 367.0
69 389.0 135.0
70 249.0 436.0
71 162.0 607.0
72 49.0 183.0
73 179.0 323.0
74 287.0 184.0
75 283.0 570.0
76 110.0 364.0
77 589.0 421.0
78 373.0 121.0
79 257.0 532.0
80 421.0 62.0
81 210.0 536.0
82 589.0 376.0
83 316.0 52.0
84 307.0 489.0
85 368.0 444.0
86 487.0 533.0
87 282.0 360.0
88 412.0 531.0
89 386.0 140.0
90 226.0 590.0
91 74.0 89.0
92 148.0 289.0
93 127.0 38.0
94 457.0 192.0
95 257.0 416.0
96 407.0 324.0
97 517.0 534.0
98 157.0 155.0
99 226.0 243.0
100 286.0 337.0
101 450.0 40.0
102 50.0 98.0
103 340.0 416.0
104 484.0 579.0
105 193.0 274.0
106 579.0 355.0
107 113.0 250.0
108 76.0 353.0
109 599.0 456.0
110 64.0 454.0
111 313.0 11.0
112 387.0 515.0
113 150.0 99.0
114 180.0 413.0
115 514.0 238.0
116 175.0 280.0
117 478.0 423.0
118 345.0 566.0
119 117.0 141.0
120 274.0 53.0
121 511.0 435.0
122 401.0 271.0
123 309.0 543.0
124 379.0 336.0
125 370.0 366.0
126 421.0 417.0
127 46.0 566.0
128 451.0 605.0
129 7.0 215.0
130 117.0 235.0
131 531.0 328.0
132 413.0 595.0
133 32.0 135.0
134 263.0 222.0
135 14.0 423.0
136 428.0 511.0
137 348.0 149.0
138 22.0 242.0
139 6.0 455.0
140 243.0 106.0
141 532.0 303.0
142 298.0 183.0
143 32.0 376.0
144 69.0 281.0
145 101.0 471.0
146 216.0 244.0
147 390.0 134.0
148 274.0 503.0
149 43.0 307.0
150 401.0 361.0
151 364.0 541.0
152 150.0 451.0
153 511.0 356.0
154 229.0 12.0
155 335.0 590.0
156 250.0 421.0
157 348.0 501.0
158 332.0 45.0
159 355.0 286.0
160 96.0 491.0
161 2.0 375.0
162 283.0 78.0
163 104.0 83.0
164 524.0 513.0
165 308.0 480.0
166 221.0 180.0
167 528.0 301.0
168 578.0 96.0
169 170.0 434.0
170 312.0 87.0
171 154.0 600.0
172 282.0 566.0
173 89.0 86.0
174 8.0 553.0
175 61.0 527.0
176 111.0 429.0
177 486.0 309.0
178 218.0 72.0
179 368.0 358.0
180 198.0 184.0
181 346.0 106.0
182 602.0 88.0
183 252.0 93.0
184 111.0 217.0
185 494.0 189.0
186 80.0 312.0
187 268.0 308.0
188 230.0 358.0
189 285.0 484.0
190 587.0 169.0
191 399.0 333.0
192 264.0 359.0
193 164.0 435.0
194 10.0 152.0
195 460.0 45.0
196 119.0 189.0
197 123.0 294.0
198 77.0 388.0
199 177.0 549.0
200 535.0 261.0
201 544.0 290.0
202 283.0 194.0
203 443.0 90.0
204 290.0 155.0
205 125.0 152.0
206 110.0 443.0
207 536.0 37.0
208 168.0 2.0
209 599.0 581.0
210 183.0 304.0
211 231.0 340.0
212 219.0 493.0
213 203.0 525.0
214 371.0 355.0
215 139.0 361.0
216 164.0 277.0
217 368.0 405.0
218 249.0 260.0
219 236.0 433.0
220 123.0 165.0
221 138.0 249.0
222 408.0 90.0
223 478.0 406.0
224 295.0 11.0
225 129.0 110.0
226 153.0 373.0
227 112.0 318.0
228 403.0 572.0
229 241.0 391.0
230 54.0 413.0
231 546.0 91.0
232 288.0 96.0
233 180.0 250.0
234 6.0 6.0
235 37.0 484.0
236 454.0 85.0
237 222.0 283.0
238 589.0 108.0
239 235.0 261.0
240 225.0 580.0
241 527.0 81.0
242 344.0 38.0
243 82.0 156.0
244 405.0 442.0
245 378.0 227.0
246 184.0 400.0
247 79.0 560.0
248 555.0 199.0
249 376.0 347.0
250 2.0 433.0
251 317.0 453.0
252 30.0 609.0
253 231.0 482.0
254 119.0 34.0
255 487.0 229.0
256 274.0 391.0
257 540.0 372.0
258 515.0 126.0
259 470.0 288.0
260 237.0 100.0
261 75.0 343.0
262 581.0 318.0
263 90.0 515.0
264 49.0 366.0
265 378.0 346.0
266 531.0 454.0
267 185.0 597.0
268 268.0 327.0
269 287.0 215.0
270 360.0 593.0
271 58.0 378.0
272 49.0 368.0
273 486.0 96.0
274 30.0 510.0
275 440.0 458.0
276 294.0 479.0
277 508.0 295.0
278 470.0 419.0
279 10.0 118.0
280 585.0 578.0
281 503.0 141.0
282 170.0 455.0
283 128.0 138.0
284 577.0 246.0
285 442.0 309.0
286 394.0 201.0
287 478.0 467.0
288 288.0 415.0
289 324.0 423.0
290 600.0 337.0
291 320.0 131.0
292 549.0 337.0
293 291.0 390.0
294 476.0 534.0
295 581.0 208.0
296 525.0 571.0
297 467.0 90.0
298 404.0 544.0
299 576.0 67.0
300 87.0 424.0
301 350.0 584.0
302 274.0 231.0
303 358.0 203.0
304 187.0 600.0
305 474.0 598.0
306 241.0 346.0
307 293.0 52.0
308 408.0 451.0
309 13.0 401.0
310 234.0 102.0
311 125.0 112.0
312 219.0 208.0
313 608.0 25.0
314 6.0 438.0
315 533.0 66.0
316 252.0 266.0
317 41.0 552.0
318 294.0 520.0
319 50.0 480.0
320 576.0 114.0
321 363.0 119.0
322 608.0 355.0
323 340.0 459.0
324 40.0 514.0
325 531.0 377.0
326 6.0 402.0
327 176.0 442.0
328 517.0 583.0
329 370.0 303.0
330 417.0 545.0
331 527.0 85.0
332 290.0 151.0
333 405.0 42.0
334 373.0 113.0
335 527.0 506.0
336 3.0 267.0
337 506.0 165.0
338 232.0 29.0
339 239.0 127.0
340 426.0 20.0
341 254.0 173.0
342 381.0 89.0
343 492.0 493.0
344 57.0 479.0
345 72.0 454.0
346 124.0 511.0
347 569.0 343.0
348 244.0 12.0
349 291.0 204.0
350 264.0 529.0
351 456.0 305.0
352 248.0 598.0
353 76.0 491.0
354 501.0 287.0
355 277.0 161.0
356 109.0 313.0
357 219.0 283.0
358 25.0 579.0
359 262.0 172.0
360 365.0 199.0
361 434.0 202.0
362 200.0 133.0
363 169.0 91.0
364 256.0 462.0
365 408.0 251.0
366 173.0 599.0
367 106.0 209.0
368 609.0 275.0
369 456.0 577.0
370 264.0 31.0
371 471.0 184.0
372 78.0 474.0
373 230.0 184.0
374 203.0 585.0
375 297.0 66.0
376 565.0 295.0
377 322.0 230.0
378 38.0 572.0
379 5.0 32.0
380 181.0 143.0
381 192.0 205.0
382 496.0 271.0
383 105.0 488.0
384 468.0 394.0
385 595.0 40.0
386 183.0 85.0
387 371.0 482.0
388 52.0 340.0
389 265.0 65.0
390 313.0 38.0
391 139.0 428.0
392 484.0 62.0
393 254.0 31.0
394 170.0 23.0
395 330.0 347.0
396 234.0 2.0
397 142.0 220.0
398 515.0 263.0
399 45.0 192.0
400 589.0 87.0
401 439.0 199.0
402 591.0 508.0
403 123.0 269.0
404 172.0 149.0
405 407.0 505.0
406 596.0 507.0
407 193.0 496.0
408 340.0 260.0
409 496.0 457.0
410 87.0 12.0
411 102.0 317.0
412 426.0 522.0
413 64.0 183.0
414 605.0 452.0
415 257.0 293.0
416 441.0 598.0
417 71.0 188.0
418 496.0 487.0
419 135.0 407.0
420 517.0 422.0
421 58.0 511.0
422 499.0 12.0
423 488.0 22.0
424 296.0 112.0
425 264.0 26.0
426 494.0 15.0
427 451.0 522.0
428 545.0 32.0
429 228.0 559.0
430 308.0 85.0
431 267.0 607.0
432 562.0 31.0
433 477.0 193.0
434 204.0 271.0
435 592.0 27.0
436 107.0 134.0
437 547.0 290.0
438 3.0 70.0
439 347.0 294.0
440 349.0 402.0
441 17.0 279.0
442 15.0 395.0
443 44.0 226.0
444 89.0 59.0
445 73.0 6.0
446 422.0 433.0
447 332.0 54.0
448 384.0 342.0
449 393.0 326.0
450 407.0 180.0
451 562.0 471.0
452 522.0 17.0
453 61.0 364.0
454 265.0 548.0
455 80.0 143.0
456 51.0 354.0
457 152.0 305.0
458 475.0 174.0
459 277.0 254.0
460 364.0 26.0
461 212.0 499.0
462 356.0 296.0
463 381.0 93.0
464 521.0 413.0
465 536.0 348.0
466 164.0 58.0
467 503.0 265.0
468 9.0 134.0
469 164.0 395.0
470 157.0 329.0
471 328.0 523.0
472 577.0 232.0
473 588.0 417.0
474 446.0 444.0
475 437.0 183.0
476 299.0 172.0
477 592.0 604.0
478 529.0 579.0
479 405.0 312.0
480 311.0 444.0
481 445.0 512.0
482 303.0 497.0
483 186.0 205.0
484 167.0 420.0
485 604.0 540.0
486 253.0 274.0
487 132.0 296.0
488 584.0 557.0
489 554.0 217.0
490 51.0 426.0
491 178.0 415.0
492 376.0 254.0
493 227.0 369.0
494 154.0 126.0
495 349.0 89.0
496 326.0 400.0
497 587.0 412.0
498 217.0 160.0
499 556.0 461.0
500 47.0 443.0
501 280.0 66.0
502 285.0 414.0
503 207.0 248.0
504 553.0 366.0
505 484.0 429.0
506 542.0 319.0
507 202.0 433.0
508 84.0 120.0
509 151.0 311.0
510 523.0 425.0
511 186.0 297.0
512 477.0 220.0
513 485.0 265.0
514 252.0 99.0
515 141.0 50.0
516 170.0 448.0
517 119.0 210.0
518 292.0 603.0
519 321.0 468.0
520 394.0 67.0
521 222.0 337.0
522 536.0 497.0
523 352.0 348.0
524 328.0 551.0
525 162.0 341.0
526 132.0 457.0
527 370.0 367.0
528 309.0 250.0
529 434.0 245.0
530 602.0 119.0
531 441.0 464.0
532 278.0 93.0
533 251.0 434.0
534 111.0 302.0
535 472.0 175.0
536 206.0 80.0
537 313.0 533.0
538 311.0 327.0
539 486.0 214.0
540 103.0 583.0
541 285.0 425.0
542 271.0 501.0
543 263.0 239.0
544 563.0 350.0
545 244.0 457.0
546 320.0 209.0
547 563.0 217.0
548 538.0 433.0
549 157.0 351.0
550 197.0 351.0
551 213.0 373.0
552 265.0 324.0
553 207.0 264.0
554 266.0 305.0
555 416.0 606.0
556 538.0 189.0
557 376.0 172.0
558 166.0 577.0
559 212.0 299.0
560 368.0 403.0
561 574.0 108.0
562 203.0 486.0
563 161.0 444.0
564 206.0 43.0
565 225.0 394.0
566 479.0 387.0
567 519.0 553.0
568 33.0 477.0
569 227.0 318.0
570 248.0 572.0
571 244.0 443.0
572 353.0 430.0
573 586.0 116.0
574 403.0 177.0
575 549.0 34.0
576 537.0 376.0
577 290.0 47.0
578 438.0 402.0
579 451.0 563.0
580 292.0 84.0
581 376.0 112.0
582 239.0 222.0
583 334.0 380.0
584 191.0 309.0
585 541.0 540.0
586 504.0 585.0
587 424.0 315.0
588 21.0 232.0
589 233.0 70.0
590 124.0 340.0
591 82.0 606.0
592 569.0 534.0
593 360.0 499.0
594 421.0 92.0
595 496.0 395.0
596 431.0 567.0
597 438.0 605.0
598 140.0 119.0
599 139.0 365.0
600 333.0 125.0
601 340.0 313.0
602 78.0 402.0
603 529.0 17.0
604 18.0 32.0
605 564.0 115.0
606 278.0 44.0
607 205.0 488.0
608 240.0 409.0
609 298.0 327.0
610 175.0 473.0
EOF





